(set-logic ALL)
(declare-fun i1 () Int)
(declare-fun it384 () Int)
(declare-fun it385 () Int)
(declare-fun it15 () Int)
(declare-fun it386 () Int)
(declare-fun it14 () Int)
(declare-fun it13 () Int)
(declare-fun it387 () Int)
(declare-fun bt433 () Bool)
(declare-fun bt434 () Bool)
(declare-fun bt435 () Bool)
(declare-fun bt436 () Bool)
(declare-fun it17 () Int)
(declare-fun it16 () Int)
(declare-fun it18 () Int)
(declare-fun bt25 () Bool)
(declare-fun bt28 () Bool)
(declare-fun bt26 () Bool)
(declare-fun bt27 () Bool)
(declare-fun it391 () Int)
(declare-fun it392 () Int)
(declare-fun it393 () Int)
(declare-fun it394 () Int)
(declare-fun bt437 () Bool)
(declare-fun bt438 () Bool)
(declare-fun bt439 () Bool)
(declare-fun bt440 () Bool)
(declare-fun it397 () Int)
(declare-fun it395 () Int)
(declare-fun bt442 () Bool)
(declare-fun bt444 () Bool)
(declare-fun bt441 () Bool)
(declare-fun it396 () Int)
(declare-fun bt443 () Bool)
(declare-fun it398 () Int)
(declare-fun it399 () Int)
(declare-fun it400 () Int)
(declare-fun it401 () Int)
(declare-fun bt445 () Bool)
(declare-fun bt446 () Bool)
(declare-fun bt447 () Bool)
(declare-fun bt448 () Bool)
(declare-fun it404 () Int)
(declare-fun it403 () Int)
(declare-fun bt451 () Bool)
(declare-fun bt450 () Bool)
(declare-fun it402 () Int)
(declare-fun bt449 () Bool)
(declare-fun bt452 () Bool)
(declare-fun it431 () Int)
(declare-fun it432 () Int)
(declare-fun it433 () Int)
(declare-fun it434 () Int)
(declare-fun bt477 () Bool)
(declare-fun bt478 () Bool)
(declare-fun bt479 () Bool)
(declare-fun bt480 () Bool)
(declare-fun it435 () Int)
(declare-fun it436 () Int)
(declare-fun bt483 () Bool)
(declare-fun bt482 () Bool)
(declare-fun bt481 () Bool)
(declare-fun bt484 () Bool)
(declare-fun it437 () Int)
(declare-fun it440 () Int)
(declare-fun it441 () Int)
(declare-fun it442 () Int)
(declare-fun it443 () Int)
(declare-fun bt485 () Bool)
(declare-fun bt486 () Bool)
(declare-fun bt487 () Bool)
(declare-fun bt488 () Bool)
(declare-fun it155 () Int)
(assert (= (+ i1 (- 1)) 0))
(assert (= (+ it384 (- 2)) 0))
(assert (= (+ (* it15 (- 1)) it385) 0))
(assert (= (+ (* it14 (- 1)) it386) 0))
(assert (= (+ it387 (* it13 (- 1))) 0))
(assert (or (not bt433) (and false bt433)))
(assert (or bt434 (and false (not bt434))))
(assert (or (not bt435) (and false bt435)))
(assert (or (not bt436) (and false bt436)))
(assert (and bt27
     (not bt26)
     (not bt28)
     (not bt25)
     (= (+ it18 (- 1)) 0)
     (= (+ it384 (- 2)) 0)
     bt434
     (not bt436)
     (not bt435)
     (not bt433)
     (= (+ it387 (* it16 (- 1))) 0)
     (= (+ (* it17 (- 1)) it386) 0)))
(assert (= (+ it391 (- 2)) 0))
(assert (= (+ (* it18 (- 1)) it392) 0))
(assert (= (+ (* it17 (- 1)) it393) 0))
(assert (= (+ it394 (* it16 (- 1))) 0))
(assert (or (and bt27 bt437) (and (not bt27) (not bt437))))
(assert (or (and (not bt28) (not bt438)) (and bt28 bt438)))
(assert (or (and bt26 bt439) (and (not bt26) (not bt439))))
(assert (or (and (not bt25) (not bt440)) (and bt25 bt440)))
(assert (and (not bt439)
     (> (+ it394 (* it392 (- 1))) 0)
     (not bt443)
     (= (+ (* it396 (- 1)) it393) 0)
     bt437
     bt441
     (not bt444)
     bt442
     (= (+ it391 (- 2)) 0)
     (= (+ (* it395 (- 1)) it392) 0)
     (not bt438)
     (= (+ (* it397 (- 1)) it394) 0)
     (not bt440)))
(assert (= (+ it398 (- 2)) 0))
(assert (= (+ (* it395 (- 1)) it399) 0))
(assert (= (+ it400 (* it396 (- 1))) 0))
(assert (= (+ (* it397 (- 1)) it401) 0))
(assert (or (and bt442 bt445) (and (not bt442) (not bt445))))
(assert (or (and (not bt441) (not bt446)) (and bt441 bt446)))
(assert (or (and (not bt443) (not bt447)) (and bt443 bt447)))
(assert (or (and (not bt448) (not bt444)) (and bt444 bt448)))
(assert (and (<= it400 0)
     (not bt452)
     (not bt449)
     (= (+ (* it402 (- 1)) it399) 0)
     (not bt447)
     (= (+ it398 (- 2)) 0)
     (not bt448)
     bt450
     bt451
     bt445
     bt446
     (= (+ it400 (* it403 (- 1))) 0)
     (= (+ it401 (* it404 (- 1))) 0)))
(assert (= (+ it431 (- 2)) 0))
(assert (= (+ (* it402 (- 1)) it432) 0))
(assert (= (+ (* it403 (- 1)) it433) 0))
(assert (= (+ it434 (* it404 (- 1))) 0))
(assert (or (and bt477 bt450) (and (not bt450) (not bt477))))
(assert (or (and (not bt449) (not bt478)) (and bt449 bt478)))
(assert (or (and bt479 bt451) (and (not bt451) (not bt479))))
(assert (or (and (not bt452) (not bt480)) (and bt452 bt480)))
(assert (and bt479
     (= (+ it434 (* it437 (- 1))) 0)
     (not bt478)
     (not bt484)
     bt481
     bt482
     bt483
     (= (+ it431 (- 2)) 0)
     (= (+ it433 (* it436 (- 1))) 0)
     bt477
     (= (+ (* it432 3) (* it435 (- 1))) 0)))
(assert (= (+ it440 (- 2)) 0))
(assert (= (+ it441 (* it435 (- 1))) 0))
(assert (= (+ it442 (* it436 (- 1))) 0))
(assert (= (+ (* it437 (- 1)) it443) 0))
(assert (or (and bt485 bt482) (and (not bt482) (not bt485))))
(assert (or (and (not bt486) (not bt481)) (and bt486 bt481)))
(assert (or (and (not bt487) (not bt483)) (and bt483 bt487)))
(assert (or (and (not bt484) (not bt488)) (and bt488 bt484)))
(assert (let ((a!1 (+ (* (+ 0 it441) (exp 2 (+ it155 (- 1))) (+ 0 (- 1)))
              (+ 0 it443))))
  (and (>= (+ (* it440 (- 1)) 2) 0)
       bt485
       (not bt487)
       (> it442 0)
       (>= (+ it440 (- 2)) 0)
       (not bt488)
       (not bt486)
       (> a!1 (+ 0 0))
       (>= (+ it155 (- 1)) 0)
       (> (+ (* it441 (- 1)) it443) 0))))
(check-sat)
